c Sudoku solution
p cnf 729 0
169 0
242 0
277 0
318 0
327 0
335 0
464 0
491 0
517 0
582 0
594 0
628 0
634 0
655 0
693 0
751 0
821 0
883 0
915 0
926 0
939 0
953 0
971 0
998 0
962 0
452 0
612 0
531 0
814 0
713 0
722 0
132 0
157 0
196 0
111 0
679 0
281 0
354 0
224 0
123 0
236 0
219 0
373 0
392 0
263 0
145 0
258 0
295 0
389 0
416 0
433 0
543 0
872 0
865 0
838 0
737 0
799 0
897 0
984 0
744 0
947 0
768 0
487 0
686 0
641 0
667 0
346 0
361 0
849 0
856 0
448 0
566 0
559 0
475 0
578 0
429 0
525 0
174 0
188 0
776 0
785 0
